1248.38 241422
56532.9 178972
247972 3287.53
61683 174264
246550 3287.53
62132.4 174078
17929.9 237246
80560.5 162483
29316 219760
207033 46210.6
31068.7 213151
213786 41848.3
140962 98035.4
55038.2 183060
225966 29972.4
103905 134659
55335.2 182870
230715 21193.3
178855 79279.7
137337 101003
99107.5 152306
56250.4 182132
178497 81097.9
128449 117943
192463 51235
139525 99074.5
215300 37005.2
182650 65006.5
37655.6 201037
136211 103999
117329 130387
100137 149464
78318.4 164659
19650 222820
185636 64019.7
181420 69520.8
131143 112170
37861.8 201028
189822 53452.6
52735.3 186259
69574.9 171737
188492 53633.9
19102 232335
7845.12 237569
98415.3 153944
37630.3 203223
60883 178403
109216 131087
135540 105714
52547.7 189126
49072.1 193898
43763.6 199042
186429 54341
47424.2 197363
232353 11057.3
106378 133466
194432 50022.8
121328 128703
195963 49320.4
52709.4 187066
238990 5628.68
